p tw 40 84
0 1
0 22
0 25
0 37
0 33
1 19
1 13
1 18
2 3
2 14
2 32
2 10
2 12
3 25
4 5
4 16
4 28
4 20
5 22
5 29
6 7
6 25
6 20
6 29
6 14
7 20
7 26
7 33
8 9
8 32
9 27
9 36
9 30
9 18
9 16
9 37
9 14
9 32
10 11
10 25
10 16
11 33
11 34
11 37
12 13
12 37
13 26
13 18
13 38
13 31
14 19
14 16
14 31
14 29
15 16
15 21
16 24
16 33
16 23
16 27
16 18
17 18
17 19
17 32
17 29
18 21
18 32
19 28
20 23
20 39
21 31
21 35
22 25
22 37
23 24
25 26
25 29
28 37
29 30
29 32
29 34
30 31
34 35
34 36
